ACTORES = {Actor1, Actor2, Actor3, Actor4, Actor5, Actor6, Actor7, Actor8};

num_escenas = 20;

participacion = array2d(ACTORES, 1..20, [
  1,1,1,1,0,1,0,1,0,1,1,0,0,0,0,0,0,0,0,0,  % Actor1
  1,1,1,0,0,0,1,1,0,1,0,0,1,1,1,0,1,0,0,1,  % Actor2
  0,1,1,0,1,0,1,1,0,0,0,0,1,1,1,0,0,0,0,0,  % Actor3
  0,0,0,0,0,0,0,0,0,1,1,1,1,0,0,0,0,0,0,0,  % Actor4
  0,1,0,0,0,0,1,1,0,0,0,1,0,1,0,0,0,1,1,1,  % Actor5
  0,0,0,0,0,0,0,0,0,0,0,0,0,1,1,1,1,1,0,0,  % Actor6
  0,0,0,0,1,0,1,1,0,0,0,0,0,0,1,0,0,0,0,0,  % Actor7
  0,0,0,0,0,1,1,1,1,0,0,0,0,0,0,0,0,0,0,0   % Actor8
]);

costo_actor = [10, 4, 5, 5, 5, 40, 4, 20];

duracion = [2,1,1,1,1,3,1,1,1,2,1,1,2,1,2,1,1,2,1,1];
